\ SCIP STATISTICS
\   Problem name     : SetCover-100-100
\   Variables        : 100 (100 binary, 0 integer, 0 implicit integer, 0 continuous)
\   Constraints      : 100
Minimize
 Obj: +44 x0 +96 x1 +44 x2 +51 x3 +80 x4 +51 x5 +66 x6 +9 x7 +61 x8 +75 x9 +33 x10 +89 x11 +65 x12 +74 x13
      +26 x14 +7 x15 +33 x16 +26 x17 +55 x18 +46 x19 +31 x20 +76 x21 +50 x22 +17 x23 +98 x24 +28 x25 +35 x26
      +100 x27 +65 x28 +2 x29 +70 x30 +46 x31 +51 x32 +85 x33 +48 x34 +33 x35 +51 x36 +68 x37 +28 x38
      +50 x39 +97 x40 +66 x41 +66 x42 +77 x43 +36 x44 +55 x45 +41 x46 +37 x47 +64 x48 +54 x49 +60 x50
      +97 x51 +50 x52 +99 x53 +49 x54 +48 x55 +2 x56 +51 x57 +56 x58 +93 x59 +20 x60 +78 x61 +67 x62 +69 x63
      +28 x64 +88 x65 +85 x66 +9 x67 +30 x68 +61 x69 +86 x70 +87 x71 +16 x72 +57 x73 +79 x74 +37 x75 +32 x76
      +60 x77 +7 x78 +4 x79 +3 x80 +23 x81 +13 x82 +82 x83 +48 x84 +87 x85 +4 x86 +77 x87 +29 x88 +41 x89
      +27 x90 +74 x91 +58 x92 +63 x93 +83 x94 +82 x95 +53 x96 +55 x97 +89 x98 +34 x99
Subject to
 c0: +1 x4 +1 x7 +1 x11 +1 x13 +1 x15 +1 x19 +1 x21 +1 x22 +1 x26 +1 x34 +1 x47 +1 x68 +1 x74 +1 x83 +1 x90
  +1 x95 >= +1
 c1: +1 x1 +1 x7 +1 x8 +1 x30 +1 x33 +1 x42 +1 x43 +1 x44 +1 x47 +1 x59 +1 x68 +1 x69 +1 x76 +1 x81 +1 x83
  +1 x88 +1 x91 >= +1
 c2: +1 x3 +1 x14 +1 x18 +1 x36 +1 x44 +1 x54 +1 x58 +1 x59 +1 x80 +1 x82 +1 x84 >= +1
 c3: +1 x3 +1 x20 +1 x27 +1 x30 +1 x40 +1 x50 +1 x54 +1 x55 +1 x60 +1 x62 +1 x84 +1 x89 +1 x91 >= +1
 c4: +1 x5 +1 x11 +1 x12 +1 x13 +1 x16 +1 x19 +1 x24 +1 x28 +1 x42 +1 x48 +1 x53 +1 x59 +1 x60 +1 x64
  +1 x71 +1 x79 +1 x82 +1 x84 >= +1
 c5: +1 x3 +1 x10 +1 x23 +1 x34 +1 x36 +1 x51 +1 x52 +1 x64 +1 x84 +1 x85 +1 x88 +1 x93 >= +1
 c6: +1 x5 +1 x7 +1 x9 +1 x17 +1 x18 +1 x20 +1 x29 +1 x34 +1 x46 +1 x56 +1 x69 +1 x73 +1 x90 +1 x93 +1 x99
  >= +1
 c7: +1 x1 +1 x9 +1 x19 +1 x26 +1 x36 +1 x39 +1 x44 +1 x45 +1 x50 +1 x59 +1 x68 +1 x74 +1 x75 +1 x76 +1 x81
  +1 x88 +1 x92 >= +1
 c8: +1 x0 +1 x12 +1 x28 +1 x42 +1 x44 +1 x56 +1 x61 +1 x62 +1 x66 +1 x72 +1 x79 +1 x84 +1 x85 +1 x92
  >= +1
 c9: +1 x1 +1 x10 +1 x17 +1 x20 +1 x21 +1 x42 +1 x54 +1 x61 +1 x69 +1 x72 +1 x75 +1 x84 >= +1
 c10: +1 x3 +1 x8 +1 x24 +1 x51 +1 x54 +1 x57 +1 x58 +1 x59 +1 x67 +1 x76 +1 x79 +1 x84 +1 x88 +1 x97
  >= +1
 c11: +1 x1 +1 x9 +1 x10 +1 x12 +1 x15 +1 x18 +1 x37 +1 x41 +1 x45 +1 x47 +1 x52 +1 x55 +1 x65 +1 x66
  +1 x73 +1 x76 +1 x81 +1 x90 +1 x92 >= +1
 c12: +1 x6 +1 x17 +1 x22 +1 x32 +1 x43 +1 x54 +1 x57 +1 x59 +1 x65 +1 x68 +1 x72 +1 x73 +1 x88 +1 x94
  +1 x98 >= +1
 c13: +1 x6 +1 x8 +1 x11 +1 x13 +1 x19 +1 x20 +1 x25 +1 x33 +1 x48 +1 x52 +1 x54 +1 x67 +1 x77 +1 x81
  +1 x84 +1 x95 +1 x97 >= +1
 c14: +1 x5 +1 x13 +1 x17 +1 x21 +1 x33 +1 x64 +1 x81 +1 x92 +1 x99 >= +1
 c15: +1 x0 +1 x12 +1 x18 +1 x32 +1 x34 +1 x38 +1 x46 +1 x49 +1 x58 +1 x59 +1 x64 +1 x82 +1 x97 +1 x98
  >= +1
 c16: +1 x0 +1 x25 +1 x34 +1 x36 +1 x38 +1 x39 +1 x44 +1 x45 +1 x46 +1 x59 +1 x65 +1 x76 +1 x77 +1 x79
  +1 x87 +1 x89 +1 x90 +1 x99 >= +1
 c17: +1 x2 +1 x7 +1 x9 +1 x15 +1 x22 +1 x26 +1 x28 +1 x29 +1 x42 +1 x51 +1 x58 +1 x59 +1 x61 +1 x87 +1 x90
  >= +1
 c18: +1 x4 +1 x11 +1 x13 +1 x17 +1 x26 +1 x34 +1 x41 +1 x44 +1 x54 +1 x75 +1 x78 +1 x82 +1 x83 +1 x97
  >= +1
 c19: +1 x2 +1 x8 +1 x9 +1 x11 +1 x19 +1 x45 +1 x49 +1 x57 +1 x58 +1 x70 +1 x79 +1 x82 +1 x83 +1 x92 +1 x96
  >= +1
 c20: +1 x6 +1 x14 +1 x23 +1 x33 +1 x38 +1 x41 +1 x52 +1 x53 +1 x57 +1 x65 +1 x74 +1 x76 +1 x86 +1 x87
  +1 x88 +1 x98 >= +1
 c21: +1 x1 +1 x8 +1 x9 +1 x12 +1 x16 +1 x26 +1 x57 +1 x61 +1 x71 +1 x72 +1 x81 +1 x91 >= +1
 c22: +1 x3 +1 x41 +1 x42 +1 x52 +1 x53 +1 x55 +1 x69 +1 x72 +1 x77 +1 x84 +1 x85 +1 x88 +1 x90 +1 x92
  >= +1
 c23: +1 x3 +1 x7 +1 x9 +1 x16 +1 x24 +1 x25 +1 x28 +1 x29 +1 x43 +1 x52 +1 x61 +1 x66 +1 x71 +1 x82 +1 x88
  +1 x89 +1 x96 +1 x97 >= +1
 c24: +1 x5 +1 x16 +1 x21 +1 x25 +1 x38 +1 x41 +1 x44 +1 x48 +1 x57 +1 x70 +1 x72 +1 x73 +1 x76 +1 x77
  +1 x87 +1 x90 >= +1
 c25: +1 x1 +1 x8 +1 x10 +1 x36 +1 x42 +1 x46 +1 x47 +1 x55 +1 x72 +1 x80 +1 x93 +1 x98 >= +1
 c26: +1 x1 +1 x9 +1 x10 +1 x22 +1 x23 +1 x25 +1 x29 +1 x30 +1 x31 +1 x33 +1 x41 +1 x44 +1 x47 +1 x60
  +1 x65 +1 x68 +1 x71 +1 x79 +1 x88 +1 x89 +1 x94 >= +1
 c27: +1 x5 +1 x16 +1 x28 +1 x29 +1 x30 +1 x35 +1 x37 +1 x38 +1 x48 +1 x52 +1 x58 +1 x63 +1 x64 +1 x67
  +1 x68 +1 x69 +1 x72 +1 x76 +1 x93 >= +1
 c28: +1 x4 +1 x12 +1 x32 +1 x38 +1 x39 +1 x40 +1 x68 +1 x76 +1 x79 +1 x88 >= +1
 c29: +1 x6 +1 x11 +1 x14 +1 x44 +1 x51 +1 x52 +1 x54 +1 x57 +1 x71 +1 x74 +1 x83 +1 x90 >= +1
 c30: +1 x1 +1 x6 +1 x13 +1 x14 +1 x30 +1 x34 +1 x37 +1 x53 +1 x78 +1 x82 +1 x89 +1 x99 >= +1
 c31: +1 x4 +1 x10 +1 x23 +1 x25 +1 x29 +1 x35 +1 x37 +1 x38 +1 x40 +1 x47 +1 x60 +1 x65 +1 x68 +1 x73
  +1 x74 +1 x89 >= +1
 c32: +1 x4 +1 x12 +1 x23 +1 x28 +1 x29 +1 x40 +1 x44 +1 x45 +1 x53 +1 x69 +1 x85 +1 x92 +1 x95 +1 x97
  +1 x98 >= +1
 c33: +1 x0 +1 x34 +1 x39 +1 x46 +1 x48 +1 x49 +1 x63 +1 x66 +1 x72 +1 x82 +1 x90 >= +1
 c34: +1 x2 +1 x13 +1 x15 +1 x30 +1 x31 +1 x33 +1 x40 +1 x59 +1 x68 +1 x69 +1 x70 +1 x76 +1 x78 +1 x83
  >= +1
 c35: +1 x1 +1 x12 +1 x13 +1 x14 +1 x15 +1 x22 +1 x24 +1 x26 +1 x29 +1 x33 +1 x38 +1 x53 +1 x55 +1 x64
  +1 x68 +1 x71 +1 x91 +1 x94 >= +1
 c36: +1 x3 +1 x13 +1 x14 +1 x15 +1 x20 +1 x22 +1 x28 +1 x36 +1 x37 +1 x42 +1 x49 +1 x55 +1 x57 +1 x58
  +1 x60 +1 x61 +1 x63 +1 x65 +1 x70 +1 x82 +1 x91 +1 x93 +1 x95 >= +1
 c37: +1 x3 +1 x11 +1 x13 +1 x17 +1 x37 +1 x42 +1 x47 +1 x52 +1 x63 +1 x81 >= +1
 c38: +1 x1 +1 x11 +1 x12 +1 x20 +1 x25 +1 x34 +1 x48 +1 x57 +1 x63 +1 x74 +1 x90 >= +1
 c39: +1 x3 +1 x12 +1 x18 +1 x28 +1 x29 +1 x33 +1 x38 +1 x40 +1 x43 +1 x45 +1 x48 +1 x55 +1 x58 +1 x62
  +1 x63 +1 x70 +1 x72 +1 x73 +1 x80 +1 x87 +1 x92 >= +1
 c40: +1 x2 +1 x7 +1 x8 +1 x13 +1 x19 +1 x25 +1 x38 +1 x39 +1 x45 +1 x67 +1 x81 >= +1
 c41: +1 x4 +1 x8 +1 x10 +1 x11 +1 x14 +1 x26 +1 x30 +1 x47 +1 x48 +1 x62 +1 x65 +1 x70 +1 x75 +1 x90
  +1 x94 +1 x99 >= +1
 c42: +1 x0 +1 x14 +1 x27 +1 x31 +1 x36 +1 x37 +1 x40 +1 x46 +1 x56 +1 x74 +1 x88 >= +1
 c43: +1 x5 +1 x10 +1 x20 +1 x43 +1 x47 +1 x49 +1 x74 +1 x76 +1 x82 +1 x96 +1 x97 >= +1
 c44: +1 x2 +1 x7 +1 x8 +1 x11 +1 x14 +1 x18 +1 x21 +1 x30 +1 x36 +1 x38 +1 x41 +1 x48 +1 x50 +1 x52 +1 x54
  +1 x61 +1 x79 +1 x87 +1 x98 >= +1
 c45: +1 x1 +1 x8 +1 x9 +1 x21 +1 x25 +1 x30 +1 x39 +1 x63 +1 x65 +1 x67 +1 x73 +1 x78 +1 x80 +1 x86 +1 x96
  +1 x98 >= +1
 c46: +1 x4 +1 x8 +1 x11 +1 x12 +1 x29 +1 x38 +1 x41 +1 x53 +1 x54 +1 x65 +1 x67 +1 x78 +1 x85 +1 x89
  >= +1
 c47: +1 x6 +1 x8 +1 x11 +1 x24 +1 x25 +1 x27 +1 x30 +1 x34 +1 x39 +1 x43 +1 x44 +1 x58 +1 x65 +1 x67
  +1 x86 +1 x90 +1 x92 +1 x95 +1 x99 >= +1
 c48: +1 x1 +1 x17 +1 x22 +1 x37 +1 x39 +1 x40 +1 x42 +1 x63 +1 x67 +1 x77 +1 x78 +1 x79 +1 x82 +1 x88
  +1 x91 +1 x94 +1 x95 >= +1
 c49: +1 x0 +1 x11 +1 x13 +1 x16 +1 x21 +1 x22 +1 x25 +1 x27 +1 x29 +1 x34 +1 x41 +1 x50 +1 x55 +1 x61
  +1 x68 +1 x78 +1 x83 +1 x87 >= +1
 c50: +1 x3 +1 x20 +1 x31 +1 x38 +1 x39 +1 x45 +1 x46 +1 x52 +1 x54 +1 x56 +1 x59 +1 x60 +1 x62 +1 x64
  +1 x66 +1 x68 +1 x81 +1 x83 +1 x85 +1 x90 >= +1
 c51: +1 x2 +1 x8 +1 x12 +1 x26 +1 x36 +1 x38 +1 x44 +1 x45 +1 x50 +1 x61 +1 x72 +1 x75 +1 x80 +1 x93
  +1 x95 >= +1
 c52: +1 x0 +1 x21 +1 x37 +1 x44 +1 x47 +1 x52 +1 x54 +1 x59 +1 x60 +1 x74 +1 x90 +1 x94 +1 x96 +1 x98
  +1 x99 >= +1
 c53: +1 x5 +1 x14 +1 x20 +1 x21 +1 x30 +1 x41 +1 x55 +1 x60 +1 x68 +1 x72 +1 x80 +1 x81 +1 x82 +1 x83
  +1 x85 >= +1
 c54: +1 x0 +1 x7 +1 x12 +1 x23 +1 x25 +1 x30 +1 x37 +1 x38 +1 x40 +1 x50 +1 x52 +1 x57 +1 x58 +1 x66
  +1 x68 +1 x69 +1 x71 +1 x85 +1 x89 +1 x91 +1 x93 +1 x94 +1 x96 +1 x97 +1 x98 >= +1
 c55: +1 x2 +1 x22 +1 x24 +1 x37 +1 x40 +1 x43 +1 x53 +1 x66 +1 x70 +1 x73 +1 x74 +1 x94 >= +1
 c56: +1 x2 +1 x8 +1 x10 +1 x21 +1 x27 +1 x28 +1 x30 +1 x35 +1 x42 +1 x47 +1 x51 +1 x56 +1 x60 +1 x63
  +1 x66 +1 x85 +1 x88 +1 x98 +1 x99 >= +1
 c57: +1 x0 +1 x8 +1 x10 +1 x15 +1 x22 +1 x24 +1 x29 +1 x41 +1 x52 +1 x60 +1 x64 +1 x66 +1 x70 +1 x74
  +1 x86 +1 x94 +1 x99 >= +1
 c58: +1 x5 +1 x28 +1 x42 +1 x49 +1 x57 +1 x59 +1 x60 +1 x67 +1 x72 +1 x83 +1 x87 >= +1
 c59: +1 x4 +1 x13 +1 x19 +1 x23 +1 x24 +1 x26 +1 x43 +1 x45 +1 x54 +1 x59 +1 x80 +1 x88 +1 x95 >= +1
 c60: +1 x2 +1 x37 +1 x54 +1 x61 +1 x63 +1 x66 +1 x67 +1 x68 +1 x72 +1 x77 +1 x79 +1 x86 >= +1
 c61: +1 x4 +1 x7 +1 x11 +1 x48 +1 x57 +1 x74 +1 x94 >= +1
 c62: +1 x1 +1 x6 +1 x17 +1 x40 +1 x43 +1 x46 +1 x50 +1 x58 +1 x64 +1 x69 +1 x80 +1 x87 +1 x92 >= +1
 c63: +1 x6 +1 x21 +1 x31 +1 x32 +1 x42 +1 x54 +1 x55 +1 x58 +1 x62 +1 x63 +1 x64 +1 x65 +1 x78 +1 x79
  +1 x82 +1 x84 +1 x88 +1 x94 >= +1
 c64: +1 x2 +1 x6 +1 x15 +1 x23 +1 x31 +1 x39 +1 x43 +1 x49 +1 x61 +1 x62 +1 x66 +1 x84 +1 x95 +1 x98
  >= +1
 c65: +1 x5 +1 x11 +1 x12 +1 x30 +1 x39 +1 x40 +1 x43 +1 x57 +1 x61 +1 x64 +1 x68 +1 x69 +1 x72 >= +1
 c66: +1 x1 +1 x8 +1 x10 +1 x15 +1 x16 +1 x24 +1 x26 +1 x30 +1 x34 +1 x50 +1 x55 +1 x57 +1 x59 +1 x74
  +1 x75 +1 x76 +1 x90 +1 x95 >= +1
 c67: +1 x3 +1 x22 +1 x26 +1 x30 +1 x31 +1 x41 +1 x45 +1 x48 +1 x51 +1 x53 +1 x54 +1 x65 +1 x68 +1 x69
  +1 x83 >= +1
 c68: +1 x6 +1 x9 +1 x12 +1 x14 +1 x38 +1 x59 +1 x72 +1 x75 >= +1
 c69: +1 x3 +1 x16 +1 x17 +1 x21 +1 x53 +1 x58 +1 x63 +1 x71 +1 x82 +1 x88 +1 x90 +1 x92 >= +1
 c70: +1 x1 +1 x8 +1 x17 +1 x18 +1 x22 +1 x32 +1 x65 +1 x67 +1 x79 +1 x90 +1 x91 >= +1
 c71: +1 x6 +1 x13 +1 x14 +1 x31 +1 x36 +1 x38 +1 x43 +1 x45 +1 x46 +1 x48 +1 x63 +1 x72 +1 x79 +1 x80
  +1 x81 +1 x91 +1 x99 >= +1
 c72: +1 x3 +1 x6 +1 x10 +1 x14 +1 x15 +1 x16 +1 x19 +1 x20 +1 x21 +1 x32 +1 x40 +1 x41 +1 x42 +1 x50
  +1 x57 +1 x58 +1 x59 +1 x65 +1 x73 +1 x98 >= +1
 c73: +1 x3 +1 x7 +1 x31 +1 x34 +1 x38 +1 x40 +1 x43 +1 x49 +1 x53 +1 x56 +1 x60 +1 x63 +1 x68 +1 x78
  +1 x80 +1 x84 +1 x86 +1 x88 +1 x90 >= +1
 c74: +1 x0 +1 x12 +1 x16 +1 x20 +1 x53 +1 x54 +1 x64 +1 x71 +1 x80 +1 x88 +1 x93 +1 x98 +1 x99 >= +1
 c75: +1 x1 +1 x13 +1 x14 +1 x18 +1 x22 +1 x30 +1 x33 +1 x36 +1 x39 +1 x45 +1 x54 +1 x55 +1 x57 +1 x61
  +1 x63 +1 x71 +1 x73 +1 x84 +1 x87 +1 x95 +1 x96 >= +1
 c76: +1 x0 +1 x9 +1 x12 +1 x25 +1 x28 +1 x48 +1 x52 +1 x62 +1 x72 +1 x96 >= +1
 c77: +1 x1 +1 x15 +1 x19 +1 x20 +1 x24 +1 x38 +1 x58 +1 x63 +1 x67 +1 x69 +1 x75 +1 x80 +1 x92 +1 x94
  +1 x96 +1 x97 >= +1
 c78: +1 x0 +1 x7 +1 x9 +1 x13 +1 x17 +1 x21 +1 x22 +1 x23 +1 x27 +1 x30 +1 x31 +1 x36 +1 x39 +1 x43 +1 x48
  +1 x60 +1 x70 +1 x73 +1 x74 +1 x76 +1 x81 +1 x82 +1 x85 +1 x91 >= +1
 c79: +1 x0 +1 x9 +1 x11 +1 x13 +1 x18 +1 x34 +1 x40 +1 x46 +1 x53 +1 x68 +1 x73 +1 x74 +1 x86 +1 x87
  >= +1
 c80: +1 x6 +1 x17 +1 x20 +1 x26 +1 x27 +1 x31 +1 x42 +1 x44 +1 x51 +1 x57 +1 x66 +1 x68 +1 x78 +1 x95
  +1 x96 >= +1
 c81: +1 x0 +1 x27 +1 x28 +1 x31 +1 x46 +1 x52 +1 x57 +1 x59 +1 x66 +1 x67 +1 x71 +1 x74 +1 x76 +1 x77
  +1 x82 +1 x83 +1 x86 +1 x93 +1 x94 >= +1
 c82: +1 x0 +1 x8 +1 x13 +1 x16 +1 x21 +1 x25 +1 x36 +1 x42 +1 x46 +1 x51 +1 x55 +1 x61 +1 x69 +1 x73
  +1 x89 +1 x91 +1 x99 >= +1
 c83: +1 x3 +1 x20 +1 x22 +1 x26 +1 x29 +1 x32 +1 x38 +1 x42 +1 x56 +1 x59 +1 x61 +1 x68 +1 x86 +1 x93
  >= +1
 c84: +1 x0 +1 x8 +1 x9 +1 x10 +1 x12 +1 x16 +1 x22 +1 x26 +1 x28 +1 x30 +1 x34 +1 x35 +1 x43 +1 x55 +1 x61
  +1 x83 +1 x89 +1 x90 +1 x95 +1 x96 >= +1
 c85: +1 x1 +1 x14 +1 x19 +1 x25 +1 x58 +1 x69 +1 x71 +1 x81 +1 x84 >= +1
 c86: +1 x3 +1 x10 +1 x14 +1 x18 +1 x20 +1 x22 +1 x25 +1 x27 +1 x28 +1 x31 +1 x32 +1 x36 +1 x37 +1 x39
  +1 x43 +1 x55 +1 x77 +1 x97 >= +1
 c87: +1 x1 +1 x7 +1 x9 +1 x12 +1 x25 +1 x30 +1 x43 +1 x66 +1 x81 +1 x84 +1 x87 +1 x97 >= +1
 c88: +1 x5 +1 x7 +1 x10 +1 x17 +1 x18 +1 x23 +1 x29 +1 x30 +1 x33 +1 x35 +1 x36 +1 x60 +1 x64 +1 x70
  +1 x74 +1 x82 +1 x97 >= +1
 c89: +1 x3 +1 x16 +1 x20 +1 x22 +1 x32 +1 x48 +1 x56 +1 x76 +1 x98 +1 x99 >= +1
 c90: +1 x0 +1 x12 +1 x28 +1 x34 +1 x42 +1 x46 +1 x59 +1 x60 +1 x85 +1 x86 +1 x96 >= +1
 c91: +1 x0 +1 x8 +1 x10 +1 x11 +1 x18 +1 x22 +1 x23 +1 x24 +1 x37 +1 x46 +1 x56 +1 x57 +1 x62 +1 x66
  +1 x83 +1 x85 +1 x87 +1 x99 >= +1
 c92: +1 x5 +1 x13 +1 x18 +1 x19 +1 x22 +1 x24 +1 x25 +1 x29 +1 x35 +1 x40 +1 x41 +1 x46 +1 x54 +1 x55
  +1 x84 +1 x90 +1 x97 >= +1
 c93: +1 x5 +1 x15 +1 x19 +1 x29 +1 x36 +1 x38 +1 x58 +1 x61 +1 x66 +1 x67 +1 x78 +1 x82 +1 x98 >= +1
 c94: +1 x3 +1 x9 +1 x15 +1 x38 +1 x39 +1 x45 +1 x47 +1 x63 +1 x67 +1 x80 +1 x97 >= +1
 c95: +1 x4 +1 x16 +1 x23 +1 x24 +1 x26 +1 x33 +1 x38 +1 x45 +1 x49 +1 x52 +1 x78 +1 x90 +1 x91 +1 x94
  >= +1
 c96: +1 x5 +1 x15 +1 x18 +1 x24 +1 x28 +1 x30 +1 x34 +1 x41 +1 x43 +1 x49 +1 x53 +1 x54 +1 x58 +1 x86
  +1 x88 +1 x91 +1 x95 +1 x96 +1 x97 >= +1
 c97: +1 x0 +1 x8 +1 x13 +1 x15 +1 x35 +1 x37 +1 x44 +1 x65 +1 x70 +1 x77 +1 x80 >= +1
 c98: +1 x4 +1 x13 +1 x18 +1 x19 +1 x26 +1 x31 +1 x32 +1 x39 +1 x47 +1 x48 +1 x50 +1 x51 +1 x55 +1 x56
  +1 x68 +1 x69 +1 x77 +1 x78 +1 x87 +1 x92 +1 x94 >= +1
 c99: +1 x2 +1 x15 +1 x36 +1 x39 +1 x52 +1 x62 +1 x86 +1 x89 +1 x91 >= +1
Bounds
 0 <= x0 <= 1
 0 <= x1 <= 1
 0 <= x2 <= 1
 0 <= x3 <= 1
 0 <= x4 <= 1
 0 <= x5 <= 1
 0 <= x6 <= 1
 0 <= x7 <= 1
 0 <= x8 <= 1
 0 <= x9 <= 1
 0 <= x10 <= 1
 0 <= x11 <= 1
 0 <= x12 <= 1
 0 <= x13 <= 1
 0 <= x14 <= 1
 0 <= x15 <= 1
 0 <= x16 <= 1
 0 <= x17 <= 1
 0 <= x18 <= 1
 0 <= x19 <= 1
 0 <= x20 <= 1
 0 <= x21 <= 1
 0 <= x22 <= 1
 0 <= x23 <= 1
 0 <= x24 <= 1
 0 <= x25 <= 1
 0 <= x26 <= 1
 0 <= x27 <= 1
 0 <= x28 <= 1
 0 <= x29 <= 1
 0 <= x30 <= 1
 0 <= x31 <= 1
 0 <= x32 <= 1
 0 <= x33 <= 1
 0 <= x34 <= 1
 0 <= x35 <= 1
 0 <= x36 <= 1
 0 <= x37 <= 1
 0 <= x38 <= 1
 0 <= x39 <= 1
 0 <= x40 <= 1
 0 <= x41 <= 1
 0 <= x42 <= 1
 0 <= x43 <= 1
 0 <= x44 <= 1
 0 <= x45 <= 1
 0 <= x46 <= 1
 0 <= x47 <= 1
 0 <= x48 <= 1
 0 <= x49 <= 1
 0 <= x50 <= 1
 0 <= x51 <= 1
 0 <= x52 <= 1
 0 <= x53 <= 1
 0 <= x54 <= 1
 0 <= x55 <= 1
 0 <= x56 <= 1
 0 <= x57 <= 1
 0 <= x58 <= 1
 0 <= x59 <= 1
 0 <= x60 <= 1
 0 <= x61 <= 1
 0 <= x62 <= 1
 0 <= x63 <= 1
 0 <= x64 <= 1
 0 <= x65 <= 1
 0 <= x66 <= 1
 0 <= x67 <= 1
 0 <= x68 <= 1
 0 <= x69 <= 1
 0 <= x70 <= 1
 0 <= x71 <= 1
 0 <= x72 <= 1
 0 <= x73 <= 1
 0 <= x74 <= 1
 0 <= x75 <= 1
 0 <= x76 <= 1
 0 <= x77 <= 1
 0 <= x78 <= 1
 0 <= x79 <= 1
 0 <= x80 <= 1
 0 <= x81 <= 1
 0 <= x82 <= 1
 0 <= x83 <= 1
 0 <= x84 <= 1
 0 <= x85 <= 1
 0 <= x86 <= 1
 0 <= x87 <= 1
 0 <= x88 <= 1
 0 <= x89 <= 1
 0 <= x90 <= 1
 0 <= x91 <= 1
 0 <= x92 <= 1
 0 <= x93 <= 1
 0 <= x94 <= 1
 0 <= x95 <= 1
 0 <= x96 <= 1
 0 <= x97 <= 1
 0 <= x98 <= 1
 0 <= x99 <= 1
Binaries
 x0 x1 x2 x3 x4 x5 x6 x7 x8 x9 x10 x11 x12 x13 x14 x15 x16 x17 x18 x19 x20 x21 x22 x23 x24 x25 x26 x27
 x28 x29 x30 x31 x32 x33 x34 x35 x36 x37 x38 x39 x40 x41 x42 x43 x44 x45 x46 x47 x48 x49 x50 x51 x52 x53
 x54 x55 x56 x57 x58 x59 x60 x61 x62 x63 x64 x65 x66 x67 x68 x69 x70 x71 x72 x73 x74 x75 x76 x77 x78 x79
 x80 x81 x82 x83 x84 x85 x86 x87 x88 x89 x90 x91 x92 x93 x94 x95 x96 x97 x98 x99
End
